certificates/rado_a14_c206_N37.drat
15 -36 13 0
31 -9 -15 13 0
-15 -37 0
-37 0
13 0
-15 36 0
36 0
-12 0
15 0
-11 0
-19 0
-9 0
-17 0
-32 0
16 0
14 0
5 0
-34 0
-18 0
-31 0
-33 0
-20 0
-4 0
-24 0
-3 0
-23 0
-26 0
-6 0
-25 0
-10 0
0
